
Gurobi 9.1.1 (linux64) logging started Mon Oct 18 00:58:53 2021

Changed value of parameter LogFile to results/max2cut_numv160/max2cut_numv160_i160-343_BQO_log.txt
   Prev:   Default: 
Gurobi Optimizer version 9.1.1 build v9.1.1rc0 (linux64)
Thread count: 20 physical cores, 40 logical processors, using up to 10 threads
Optimize a model with 160 rows, 320 columns and 320 nonzeros
Model fingerprint: 0x287fe67b
Model has 5408 quadratic objective terms
Variable types: 0 continuous, 320 integer (320 binary)
Coefficient statistics:
  Matrix range     [1e+00, 1e+00]
  Objective range  [8e+01, 8e+01]
  QObjective range [2e+02, 6e+02]
  Bounds range     [1e+00, 1e+00]
  RHS range        [1e+00, 1e+00]
Found heuristic solution: objective -0.0000000
Presolve removed 160 rows and 161 columns
Presolve time: 0.01s
Presolved: 2501 rows, 2660 columns, 7503 nonzeros
Variable types: 0 continuous, 2660 integer (2660 binary)

Root relaxation: objective -3.765135e+05, 159 iterations, 0.01 seconds

    Nodes    |    Current Node    |     Objective Bounds      |     Work
 Expl Unexpl |  Obj  Depth IntInf | Incumbent    BestBd   Gap | It/Node Time

     0     0 376513.500    0  159   -0.00000 376513.500      -     -    0s
H    0     0                    187239.00000 376513.500   101%     -    0s
H    0     0                    209189.00000 376513.500  80.0%     -    0s
H    0     0                    214023.00000 376513.500  75.9%     -    0s
     0     0 315878.000    0  661 214023.000 315878.000  47.6%     -    0s
H    0     0                    214398.00000 315878.000  47.3%     -    0s
     0     0 294289.500    0  833 214398.000 294289.500  37.3%     -    1s
     0     0 293282.500    0  859 214398.000 293282.500  36.8%     -    1s
H    0     0                    216249.00000 293282.500  35.6%     -    5s
H    0     0                    218736.00000 293282.500  34.1%     -    5s
H    0     0                    219099.00000 293282.500  33.9%     -    5s
     0     0 272172.282    0 1674 219099.000 272172.282  24.2%     -    5s

Cutting planes:
  Gomory: 2
  MIR: 561
  Zero half: 478
  RLT: 1071
  BQP: 249

Explored 1 nodes (12349 simplex iterations) in 5.02 seconds
Thread count was 10 (of 40 available processors)

Solution count 8: 219099 218736 216249 ... -0

Time limit reached
Best objective 2.190990000000e+05, best bound 2.721720000000e+05, gap 24.2233%
